mmax                 = 332
nmax                 = 258
dx                   = 100
dy                   = 100
x0                   = 344900
y0                   = 5581800
rotation             = 0
epsg                 = 32632
latitude             = 0
tref                 = 20210712 000000
tstart               = 20210712 000000
tstop                = 20210717 000000
dtmapout             = 3600
dthisout             = 600
dtmaxout             = 86400
trstout              = 172800
alpha                = 0.5
theta                = 1
huthresh             = 0.01
zsini                = 0
qinf                 = 0
advection            = 1
baro                 = 1
crsgeo               = 0
viscosity            = 1
depfile              = sfincs.dep
mskfile              = sfincs.msk
indexfile            = sfincs.ind
srcfile              = sfincs.src
disfile              = sfincs.dis
sbgfile              = sfincs_subgrid.nc
obsfile              = sfincs.obs
rstfile              = ../spinup_additionalsrc_velocity_100m_cutpolygon/sfincs.20210712.000000.rst
inputformat          = bin
outputformat         = net
coriolis             = 1
storevelmax          = 0
storefluxmax         = 0
storevel             = 1
storecumprcp         = 0
storemeteo           = 0
storemaxwind         = 0
weirfile             = sfincs.weir
